Welcome to the CBC MILP Solver 
Version: 2.10.3 
Build Date: Dec 15 2019 

command line - /Users/andrew.peters/.pyenv/versions/3.8.13/envs/fpl/lib/python3.8/site-packages/pulp/apis/../solverdir/cbc/osx/64/cbc /var/folders/2r/ws5w94055xdfk6l_4nmkx4g40000gq/T/9da905fc957b43bfb5d84686cae8d455-pulp.mps max timeMode elapsed branch printingOptions all solution /var/folders/2r/ws5w94055xdfk6l_4nmkx4g40000gq/T/9da905fc957b43bfb5d84686cae8d455-pulp.sol (default strategy 1)
At line 2 NAME          MODEL
At line 3 ROWS
At line 285 COLUMNS
At line 3228 RHS
At line 3509 BOUNDS
At line 3894 ENDATA
Problem MODEL has 280 rows, 384 columns and 1790 elements
Coin0008I MODEL read with 0 errors
Option for timeMode changed from cpu to elapsed
Continuous objective value is 5.41454 - 0.00 seconds
Cgl0003I 0 fixed, 0 tightened bounds, 0 strengthened rows, 1 substitutions
Cgl0004I processed model has 273 rows, 381 columns (381 integer (381 of which binary)) and 1644 elements
Cutoff increment increased from 1e-05 to 1.998e-05
Cbc0038I Initial state - 0 integers unsatisfied sum - 8.88178e-16
Cbc0038I Solution found of -5.41454
Cbc0038I Before mini branch and bound, 381 integers at bound fixed and 0 continuous
Cbc0038I Mini branch and bound did not improve solution (0.01 seconds)
Cbc0038I After 0.01 seconds - Feasibility pump exiting with objective of -5.41454 - took 0.00 seconds
Cbc0012I Integer solution of -5.41454 found by feasibility pump after 0 iterations and 0 nodes (0.01 seconds)
Cbc0001I Search completed - best objective -5.414540000000002, took 0 iterations and 0 nodes (0.01 seconds)
Cbc0035I Maximum depth 0, 0 variables fixed on reduced cost
Cuts at root node changed objective from -5.41454 to -5.41454
Probing was tried 0 times and created 0 cuts of which 0 were active after adding rounds of cuts (0.000 seconds)
Gomory was tried 0 times and created 0 cuts of which 0 were active after adding rounds of cuts (0.000 seconds)
Knapsack was tried 0 times and created 0 cuts of which 0 were active after adding rounds of cuts (0.000 seconds)
Clique was tried 0 times and created 0 cuts of which 0 were active after adding rounds of cuts (0.000 seconds)
MixedIntegerRounding2 was tried 0 times and created 0 cuts of which 0 were active after adding rounds of cuts (0.000 seconds)
FlowCover was tried 0 times and created 0 cuts of which 0 were active after adding rounds of cuts (0.000 seconds)
TwoMirCuts was tried 0 times and created 0 cuts of which 0 were active after adding rounds of cuts (0.000 seconds)
ZeroHalf was tried 0 times and created 0 cuts of which 0 were active after adding rounds of cuts (0.000 seconds)

Result - Optimal solution found

Objective value:                5.41454000
Enumerated nodes:               0
Total iterations:               0
Time (CPU seconds):             0.01
Time (Wallclock seconds):       0.01

Option for printingOptions changed from normal to all
Total time (CPU seconds):       0.01   (Wallclock seconds):       0.01

